(set-info :smt-lib-version 2.6)
(set-logic QF_NIA)
(set-info :source |
Generated by: Cristina Borralleras, Daniel Larraz, Albert Oliveras, Enric Rodriguez-Carbonell, Albert Rubio
Generated on: 2017-04-27
Generator: VeryMax
Application: Termination proving
Target solver: barcelogic
|)
(set-info :license "https://creativecommons.org/licenses/by/4.0/")
(set-info :category "industrial")
(set-info :status unknown)
(declare-fun Nl2arg11 () Int)
(declare-fun Nl2arg21 () Int)
(declare-fun Nl2arg12 () Int)
(declare-fun Nl2arg22 () Int)
(declare-fun Nl2arg13 () Int)
(declare-fun Nl2arg23 () Int)
(declare-fun lam0n0 () Int)
(declare-fun lam0n1 () Int)
(declare-fun lam0n2 () Int)
(declare-fun lam0n3 () Int)
(declare-fun lam0n4 () Int)
(declare-fun lam0n5 () Int)
(declare-fun lam0n6 () Int)
(declare-fun lam0n7 () Int)
(declare-fun lam0n8 () Int)
(declare-fun lam0n9 () Int)
(declare-fun lam0n10 () Int)
(declare-fun lam0n11 () Int)
(declare-fun UndefCntr0_CT () Int)
(declare-fun Nl2CT1 () Int)
(declare-fun Nl2CT2 () Int)
(declare-fun Nl2CT3 () Int)
(declare-fun UndefCntr0_arg1 () Int)
(declare-fun UndefCntr0_arg2 () Int)
(declare-fun UndefCntr0_undef5 () Int)
(declare-fun UndefCntr0_undef6 () Int)
(declare-fun lam1n0 () Int)
(declare-fun lam1n1 () Int)
(declare-fun lam1n2 () Int)
(declare-fun lam1n3 () Int)
(declare-fun lam1n4 () Int)
(declare-fun lam1n5 () Int)
(declare-fun lam1n6 () Int)
(declare-fun lam1n7 () Int)
(declare-fun lam1n8 () Int)
(declare-fun lam1n9 () Int)
(declare-fun lam1n10 () Int)
(declare-fun lam1n11 () Int)
(declare-fun lam2n0 () Int)
(declare-fun lam2n1 () Int)
(declare-fun lam2n2 () Int)
(declare-fun lam2n3 () Int)
(declare-fun lam2n4 () Int)
(declare-fun lam2n5 () Int)
(declare-fun lam2n6 () Int)
(declare-fun lam2n7 () Int)
(declare-fun lam2n8 () Int)
(declare-fun lam2n9 () Int)
(declare-fun lam2n10 () Int)
(declare-fun lam2n11 () Int)
(declare-fun lam3n0 () Int)
(declare-fun lam3n1 () Int)
(declare-fun lam3n2 () Int)
(declare-fun lam3n3 () Int)
(declare-fun lam3n4 () Int)
(declare-fun lam3n5 () Int)
(declare-fun lam3n6 () Int)
(declare-fun lam3n7 () Int)
(declare-fun lam3n8 () Int)
(declare-fun lam3n9 () Int)
(declare-fun lam3n10 () Int)
(declare-fun lam3n11 () Int)
(declare-fun lam4n0 () Int)
(declare-fun lam4n1 () Int)
(declare-fun lam4n2 () Int)
(declare-fun lam4n3 () Int)
(declare-fun lam4n4 () Int)
(declare-fun lam4n5 () Int)
(declare-fun lam4n6 () Int)
(declare-fun lam4n7 () Int)
(declare-fun lam4n8 () Int)
(declare-fun lam4n9 () Int)
(declare-fun lam4n10 () Int)
(declare-fun lam4n11 () Int)
(declare-fun UndefCntr1_CT () Int)
(declare-fun UndefCntr1_arg1 () Int)
(declare-fun UndefCntr1_arg2 () Int)
(declare-fun UndefCntr1_undef7 () Int)
(declare-fun UndefCntr1_undef8 () Int)
(declare-fun UndefCntr1_undef9 () Int)
(declare-fun UndefCntr1_undef10 () Int)
(declare-fun lam5n0 () Int)
(declare-fun lam5n1 () Int)
(declare-fun lam5n2 () Int)
(declare-fun lam5n3 () Int)
(declare-fun lam5n4 () Int)
(declare-fun lam5n5 () Int)
(declare-fun lam5n6 () Int)
(declare-fun lam5n7 () Int)
(declare-fun lam5n8 () Int)
(declare-fun lam5n9 () Int)
(declare-fun lam5n10 () Int)
(declare-fun lam5n11 () Int)
(declare-fun lam6n0 () Int)
(declare-fun lam6n1 () Int)
(declare-fun lam6n2 () Int)
(declare-fun lam6n3 () Int)
(declare-fun lam6n4 () Int)
(declare-fun lam6n5 () Int)
(declare-fun lam6n6 () Int)
(declare-fun lam6n7 () Int)
(declare-fun lam6n8 () Int)
(declare-fun lam6n9 () Int)
(declare-fun lam6n10 () Int)
(declare-fun lam6n11 () Int)
(declare-fun lam7n0 () Int)
(declare-fun lam7n1 () Int)
(declare-fun lam7n2 () Int)
(declare-fun lam7n3 () Int)
(declare-fun lam7n4 () Int)
(declare-fun lam7n5 () Int)
(declare-fun lam7n6 () Int)
(declare-fun lam7n7 () Int)
(declare-fun lam7n8 () Int)
(declare-fun lam7n9 () Int)
(declare-fun lam7n10 () Int)
(declare-fun lam7n11 () Int)
(declare-fun lam8n0 () Int)
(declare-fun lam8n1 () Int)
(declare-fun lam8n2 () Int)
(declare-fun lam8n3 () Int)
(declare-fun lam9n0 () Int)
(declare-fun lam9n1 () Int)
(declare-fun lam9n2 () Int)
(declare-fun lam9n3 () Int)
(declare-fun lam10n0 () Int)
(declare-fun lam10n1 () Int)
(declare-fun lam10n2 () Int)
(declare-fun lam10n3 () Int)
(declare-fun undef3 () Int)
(declare-fun undef21 () Int)
(declare-fun undef4 () Int)
(declare-fun FV_arg1_2 () Int)
(declare-fun FV_arg2_2 () Int)
(declare-fun lam11n0 () Int)
(declare-fun lam11n1 () Int)
(declare-fun lam11n2 () Int)
(declare-fun lam11n3 () Int)
(declare-fun lam11n4 () Int)
(declare-fun lam12n0 () Int)
(declare-fun lam12n1 () Int)
(declare-fun lam12n2 () Int)
(declare-fun lam12n3 () Int)
(declare-fun lam12n4 () Int)
(declare-fun UndefDef0undef6_CT () Int)
(declare-fun UndefDef0undef6_arg1 () Int)
(declare-fun UndefDef0undef6_arg2 () Int)
(declare-fun lam13n0 () Int)
(declare-fun lam13n1 () Int)
(declare-fun lam13n2 () Int)
(declare-fun lam13n3 () Int)
(declare-fun lam13n4 () Int)
(declare-fun UndefDef0undef5_CT () Int)
(declare-fun UndefDef0undef5_arg1 () Int)
(declare-fun UndefDef0undef5_arg2 () Int)
(declare-fun lam14n0 () Int)
(declare-fun lam14n1 () Int)
(declare-fun lam14n2 () Int)
(declare-fun lam14n3 () Int)
(declare-fun lam14n4 () Int)
(declare-fun lam15n0 () Int)
(declare-fun lam15n1 () Int)
(declare-fun lam15n2 () Int)
(declare-fun lam15n3 () Int)
(declare-fun lam15n4 () Int)
(declare-fun lam16n0 () Int)
(declare-fun lam16n1 () Int)
(declare-fun lam16n2 () Int)
(declare-fun lam16n3 () Int)
(declare-fun lam16n4 () Int)
(declare-fun lam17n0 () Int)
(declare-fun lam17n1 () Int)
(declare-fun lam17n2 () Int)
(declare-fun lam17n3 () Int)
(declare-fun lam17n4 () Int)
(declare-fun lam18n0 () Int)
(declare-fun lam18n1 () Int)
(declare-fun lam18n2 () Int)
(declare-fun lam18n3 () Int)
(declare-fun lam18n4 () Int)
(declare-fun lam19n0 () Int)
(declare-fun lam19n1 () Int)
(declare-fun lam19n2 () Int)
(declare-fun lam19n3 () Int)
(declare-fun lam19n4 () Int)
(declare-fun lam19n5 () Int)
(declare-fun lam19n6 () Int)
(declare-fun lam19n7 () Int)
(declare-fun lam20n0 () Int)
(declare-fun lam20n1 () Int)
(declare-fun lam20n2 () Int)
(declare-fun lam20n3 () Int)
(declare-fun lam20n4 () Int)
(declare-fun lam20n5 () Int)
(declare-fun lam20n6 () Int)
(declare-fun lam20n7 () Int)
(declare-fun UndefDef1undef7_CT () Int)
(declare-fun UndefDef1undef7_arg1 () Int)
(declare-fun UndefDef1undef7_arg2 () Int)
(declare-fun lam21n0 () Int)
(declare-fun lam21n1 () Int)
(declare-fun lam21n2 () Int)
(declare-fun lam21n3 () Int)
(declare-fun lam21n4 () Int)
(declare-fun lam21n5 () Int)
(declare-fun lam21n6 () Int)
(declare-fun lam21n7 () Int)
(declare-fun lam22n0 () Int)
(declare-fun lam22n1 () Int)
(declare-fun lam22n2 () Int)
(declare-fun lam22n3 () Int)
(declare-fun lam22n4 () Int)
(declare-fun lam22n5 () Int)
(declare-fun lam22n6 () Int)
(declare-fun lam22n7 () Int)
(declare-fun lam23n0 () Int)
(declare-fun lam23n1 () Int)
(declare-fun lam23n2 () Int)
(declare-fun lam23n3 () Int)
(declare-fun lam23n4 () Int)
(declare-fun lam23n5 () Int)
(declare-fun lam23n6 () Int)
(declare-fun lam23n7 () Int)
(declare-fun FV_undef8_1 () Int)
(declare-fun FV_undef9_1 () Int)
(declare-fun FV_undef10_1 () Int)
(declare-fun FV_arg1_1 () Int)
(declare-fun FV_arg2_1 () Int)
(declare-fun FV_undef7_1 () Int)
(declare-fun lam24n0 () Int)
(declare-fun lam24n1 () Int)
(declare-fun lam24n2 () Int)
(declare-fun lam24n3 () Int)
(declare-fun lam24n4 () Int)
(declare-fun FV_arg1_3 () Int)
(declare-fun FV_arg2_3 () Int)
(declare-fun FV_undef6_3 () Int)
(declare-fun FV_undef5_3 () Int)
(declare-fun FV_undef7_3 () Int)
(declare-fun FV_undef9_3 () Int)
(declare-fun FV_undef10_3 () Int)
(declare-fun FV_undef8_3 () Int)
(assert ( and ( <= ( - 1 ) Nl2arg11 ) ( <= Nl2arg11 1 ) ( <= ( - 1 ) Nl2arg21 ) ( <= Nl2arg21 1 ) ( <= ( - 1 ) Nl2arg12 ) ( <= Nl2arg12 1 ) ( <= ( - 1 ) Nl2arg22 ) ( <= Nl2arg22 1 ) ( <= ( - 1 ) Nl2arg13 ) ( <= Nl2arg13 1 ) ( <= ( - 1 ) Nl2arg23 ) ( <= Nl2arg23 1 ) ))
(assert ( or ( and ( >= lam0n0 0 ) ( >= lam0n1 0 ) ( >= lam0n2 0 ) ( >= lam0n3 0 ) ( >= lam0n4 0 ) ( >= lam0n5 0 ) ( >= lam0n6 0 ) ( >= lam0n7 0 ) ( >= lam0n8 0 ) ( >= lam0n9 0 ) ( >= lam0n10 0 ) ( >= lam0n11 0 ) ( > ( + ( * 1 lam0n0 ) ( * 1 lam0n1 ) ( * 1 lam0n2 ) ( * 1 lam0n3 ) ( * 2 lam0n6 ) ( * 3 lam0n7 ) ( * UndefCntr0_CT lam0n8 ) ( * Nl2CT1 lam0n9 ) ( * Nl2CT2 lam0n10 ) ( * Nl2CT3 lam0n11 ) ( - 1 ) ) 0 ) ( = ( + ( * ( - 1 ) lam0n0 ) ( * ( - 1 ) lam0n1 ) ( * ( - 1 ) lam0n4 ) ( * UndefCntr0_arg1 lam0n8 ) ( * Nl2arg11 lam0n9 ) ( * Nl2arg12 lam0n10 ) ( * Nl2arg13 lam0n11 ) ) 0 ) ( = ( + ( * ( - 1 ) lam0n2 ) ( * ( - 1 ) lam0n6 ) ( * ( - 1 ) lam0n7 ) ( * UndefCntr0_arg2 lam0n8 ) ( * Nl2arg21 lam0n9 ) ( * Nl2arg22 lam0n10 ) ( * Nl2arg23 lam0n11 ) ) 0 ) ( = ( + ( * 1 lam0n2 ) ( * ( - 1 ) lam0n3 ) ( * 1 lam0n4 ) ( * UndefCntr0_undef5 lam0n8 ) ) 0 ) ( = ( + ( * 1 lam0n1 ) ( * ( - 1 ) lam0n5 ) ( * 1 lam0n6 ) ( * UndefCntr0_undef6 lam0n8 ) ) 0 ) ) ( and ( >= lam1n0 0 ) ( >= lam1n1 0 ) ( >= lam1n2 0 ) ( >= lam1n3 0 ) ( >= lam1n4 0 ) ( >= lam1n5 0 ) ( >= lam1n6 0 ) ( >= lam1n7 0 ) ( >= lam1n8 0 ) ( >= lam1n9 0 ) ( >= lam1n10 0 ) ( >= lam1n11 0 ) ( > ( + ( * 1 lam1n0 ) ( * 1 lam1n1 ) ( * 1 lam1n2 ) ( * 1 lam1n3 ) ( * 2 lam1n6 ) ( * 3 lam1n7 ) ( * UndefCntr0_CT lam1n8 ) ( * Nl2CT1 lam1n9 ) ( * Nl2CT2 lam1n10 ) ( * Nl2CT3 lam1n11 ) ( - 1 ( + ( + Nl2CT1 ( * Nl2arg11 0 ) ) ( * Nl2arg21 0 ) ) ) ) 0 ) ( = ( + ( * ( - 1 ) lam1n0 ) ( * ( - 1 ) lam1n1 ) ( * ( - 1 ) lam1n4 ) ( * UndefCntr0_arg1 lam1n8 ) ( * Nl2arg11 lam1n9 ) ( * Nl2arg12 lam1n10 ) ( * Nl2arg13 lam1n11 ) ) 0 ) ( = ( + ( * ( - 1 ) lam1n2 ) ( * ( - 1 ) lam1n6 ) ( * ( - 1 ) lam1n7 ) ( * UndefCntr0_arg2 lam1n8 ) ( * Nl2arg21 lam1n9 ) ( * Nl2arg22 lam1n10 ) ( * Nl2arg23 lam1n11 ) ) 0 ) ( = ( + ( * 1 lam1n2 ) ( * ( - 1 ) lam1n3 ) ( * 1 lam1n4 ) ( * UndefCntr0_undef5 lam1n8 ) ( - ( + 0 ( * Nl2arg11 1 ) ) ) ) 0 ) ( = ( + ( * 1 lam1n1 ) ( * ( - 1 ) lam1n5 ) ( * 1 lam1n6 ) ( * UndefCntr0_undef6 lam1n8 ) ( - ( + 0 ( * Nl2arg21 1 ) ) ) ) 0 ) ) ))
(assert ( or ( and ( >= lam0n0 0 ) ( >= lam0n1 0 ) ( >= lam0n2 0 ) ( >= lam0n3 0 ) ( >= lam0n4 0 ) ( >= lam0n5 0 ) ( >= lam0n6 0 ) ( >= lam0n7 0 ) ( >= lam0n8 0 ) ( >= lam0n9 0 ) ( >= lam0n10 0 ) ( >= lam0n11 0 ) ( > ( + ( * 1 lam0n0 ) ( * 1 lam0n1 ) ( * 1 lam0n2 ) ( * 1 lam0n3 ) ( * 2 lam0n6 ) ( * 3 lam0n7 ) ( * UndefCntr0_CT lam0n8 ) ( * Nl2CT1 lam0n9 ) ( * Nl2CT2 lam0n10 ) ( * Nl2CT3 lam0n11 ) ( - 1 ) ) 0 ) ( = ( + ( * ( - 1 ) lam0n0 ) ( * ( - 1 ) lam0n1 ) ( * ( - 1 ) lam0n4 ) ( * UndefCntr0_arg1 lam0n8 ) ( * Nl2arg11 lam0n9 ) ( * Nl2arg12 lam0n10 ) ( * Nl2arg13 lam0n11 ) ) 0 ) ( = ( + ( * ( - 1 ) lam0n2 ) ( * ( - 1 ) lam0n6 ) ( * ( - 1 ) lam0n7 ) ( * UndefCntr0_arg2 lam0n8 ) ( * Nl2arg21 lam0n9 ) ( * Nl2arg22 lam0n10 ) ( * Nl2arg23 lam0n11 ) ) 0 ) ( = ( + ( * 1 lam0n2 ) ( * ( - 1 ) lam0n3 ) ( * 1 lam0n4 ) ( * UndefCntr0_undef5 lam0n8 ) ) 0 ) ( = ( + ( * 1 lam0n1 ) ( * ( - 1 ) lam0n5 ) ( * 1 lam0n6 ) ( * UndefCntr0_undef6 lam0n8 ) ) 0 ) ) ( and ( >= lam2n0 0 ) ( >= lam2n1 0 ) ( >= lam2n2 0 ) ( >= lam2n3 0 ) ( >= lam2n4 0 ) ( >= lam2n5 0 ) ( >= lam2n6 0 ) ( >= lam2n7 0 ) ( >= lam2n8 0 ) ( >= lam2n9 0 ) ( >= lam2n10 0 ) ( >= lam2n11 0 ) ( > ( + ( * 1 lam2n0 ) ( * 1 lam2n1 ) ( * 1 lam2n2 ) ( * 1 lam2n3 ) ( * 2 lam2n6 ) ( * 3 lam2n7 ) ( * UndefCntr0_CT lam2n8 ) ( * Nl2CT1 lam2n9 ) ( * Nl2CT2 lam2n10 ) ( * Nl2CT3 lam2n11 ) ( - 1 ( + ( + Nl2CT2 ( * Nl2arg12 0 ) ) ( * Nl2arg22 0 ) ) ) ) 0 ) ( = ( + ( * ( - 1 ) lam2n0 ) ( * ( - 1 ) lam2n1 ) ( * ( - 1 ) lam2n4 ) ( * UndefCntr0_arg1 lam2n8 ) ( * Nl2arg11 lam2n9 ) ( * Nl2arg12 lam2n10 ) ( * Nl2arg13 lam2n11 ) ) 0 ) ( = ( + ( * ( - 1 ) lam2n2 ) ( * ( - 1 ) lam2n6 ) ( * ( - 1 ) lam2n7 ) ( * UndefCntr0_arg2 lam2n8 ) ( * Nl2arg21 lam2n9 ) ( * Nl2arg22 lam2n10 ) ( * Nl2arg23 lam2n11 ) ) 0 ) ( = ( + ( * 1 lam2n2 ) ( * ( - 1 ) lam2n3 ) ( * 1 lam2n4 ) ( * UndefCntr0_undef5 lam2n8 ) ( - ( + 0 ( * Nl2arg12 1 ) ) ) ) 0 ) ( = ( + ( * 1 lam2n1 ) ( * ( - 1 ) lam2n5 ) ( * 1 lam2n6 ) ( * UndefCntr0_undef6 lam2n8 ) ( - ( + 0 ( * Nl2arg22 1 ) ) ) ) 0 ) ) ))
(assert ( or ( and ( >= lam0n0 0 ) ( >= lam0n1 0 ) ( >= lam0n2 0 ) ( >= lam0n3 0 ) ( >= lam0n4 0 ) ( >= lam0n5 0 ) ( >= lam0n6 0 ) ( >= lam0n7 0 ) ( >= lam0n8 0 ) ( >= lam0n9 0 ) ( >= lam0n10 0 ) ( >= lam0n11 0 ) ( > ( + ( * 1 lam0n0 ) ( * 1 lam0n1 ) ( * 1 lam0n2 ) ( * 1 lam0n3 ) ( * 2 lam0n6 ) ( * 3 lam0n7 ) ( * UndefCntr0_CT lam0n8 ) ( * Nl2CT1 lam0n9 ) ( * Nl2CT2 lam0n10 ) ( * Nl2CT3 lam0n11 ) ( - 1 ) ) 0 ) ( = ( + ( * ( - 1 ) lam0n0 ) ( * ( - 1 ) lam0n1 ) ( * ( - 1 ) lam0n4 ) ( * UndefCntr0_arg1 lam0n8 ) ( * Nl2arg11 lam0n9 ) ( * Nl2arg12 lam0n10 ) ( * Nl2arg13 lam0n11 ) ) 0 ) ( = ( + ( * ( - 1 ) lam0n2 ) ( * ( - 1 ) lam0n6 ) ( * ( - 1 ) lam0n7 ) ( * UndefCntr0_arg2 lam0n8 ) ( * Nl2arg21 lam0n9 ) ( * Nl2arg22 lam0n10 ) ( * Nl2arg23 lam0n11 ) ) 0 ) ( = ( + ( * 1 lam0n2 ) ( * ( - 1 ) lam0n3 ) ( * 1 lam0n4 ) ( * UndefCntr0_undef5 lam0n8 ) ) 0 ) ( = ( + ( * 1 lam0n1 ) ( * ( - 1 ) lam0n5 ) ( * 1 lam0n6 ) ( * UndefCntr0_undef6 lam0n8 ) ) 0 ) ) ( and ( >= lam3n0 0 ) ( >= lam3n1 0 ) ( >= lam3n2 0 ) ( >= lam3n3 0 ) ( >= lam3n4 0 ) ( >= lam3n5 0 ) ( >= lam3n6 0 ) ( >= lam3n7 0 ) ( >= lam3n8 0 ) ( >= lam3n9 0 ) ( >= lam3n10 0 ) ( >= lam3n11 0 ) ( > ( + ( * 1 lam3n0 ) ( * 1 lam3n1 ) ( * 1 lam3n2 ) ( * 1 lam3n3 ) ( * 2 lam3n6 ) ( * 3 lam3n7 ) ( * UndefCntr0_CT lam3n8 ) ( * Nl2CT1 lam3n9 ) ( * Nl2CT2 lam3n10 ) ( * Nl2CT3 lam3n11 ) ( - 1 ( + ( + Nl2CT3 ( * Nl2arg13 0 ) ) ( * Nl2arg23 0 ) ) ) ) 0 ) ( = ( + ( * ( - 1 ) lam3n0 ) ( * ( - 1 ) lam3n1 ) ( * ( - 1 ) lam3n4 ) ( * UndefCntr0_arg1 lam3n8 ) ( * Nl2arg11 lam3n9 ) ( * Nl2arg12 lam3n10 ) ( * Nl2arg13 lam3n11 ) ) 0 ) ( = ( + ( * ( - 1 ) lam3n2 ) ( * ( - 1 ) lam3n6 ) ( * ( - 1 ) lam3n7 ) ( * UndefCntr0_arg2 lam3n8 ) ( * Nl2arg21 lam3n9 ) ( * Nl2arg22 lam3n10 ) ( * Nl2arg23 lam3n11 ) ) 0 ) ( = ( + ( * 1 lam3n2 ) ( * ( - 1 ) lam3n3 ) ( * 1 lam3n4 ) ( * UndefCntr0_undef5 lam3n8 ) ( - ( + 0 ( * Nl2arg13 1 ) ) ) ) 0 ) ( = ( + ( * 1 lam3n1 ) ( * ( - 1 ) lam3n5 ) ( * 1 lam3n6 ) ( * UndefCntr0_undef6 lam3n8 ) ( - ( + 0 ( * Nl2arg23 1 ) ) ) ) 0 ) ) ))
(assert ( or ( and ( >= lam4n0 0 ) ( >= lam4n1 0 ) ( >= lam4n2 0 ) ( >= lam4n3 0 ) ( >= lam4n4 0 ) ( >= lam4n5 0 ) ( >= lam4n6 0 ) ( >= lam4n7 0 ) ( >= lam4n8 0 ) ( >= lam4n9 0 ) ( >= lam4n10 0 ) ( >= lam4n11 0 ) ( > ( + ( * 1 lam4n0 ) ( * 1 lam4n1 ) ( * 1 lam4n2 ) ( * 1 lam4n3 ) ( * 2 lam4n6 ) ( * 3 lam4n7 ) ( * UndefCntr1_CT lam4n8 ) ( * Nl2CT1 lam4n9 ) ( * Nl2CT2 lam4n10 ) ( * Nl2CT3 lam4n11 ) ( - 1 ) ) 0 ) ( = ( + ( * ( - 1 ) lam4n0 ) ( * ( - 1 ) lam4n4 ) ( * UndefCntr1_arg1 lam4n8 ) ( * Nl2arg11 lam4n9 ) ( * Nl2arg12 lam4n10 ) ( * Nl2arg13 lam4n11 ) ) 0 ) ( = ( + ( * ( - 1 ) lam4n6 ) ( * ( - 1 ) lam4n7 ) ( * UndefCntr1_arg2 lam4n8 ) ( * Nl2arg21 lam4n9 ) ( * Nl2arg22 lam4n10 ) ( * Nl2arg23 lam4n11 ) ) 0 ) ( = ( + ( * ( - 1 ) lam4n1 ) ( * 1 lam4n4 ) ( * 1 lam4n6 ) ( * UndefCntr1_undef7 lam4n8 ) ) 0 ) ( = ( + ( * ( - 1 ) lam4n5 ) ( * UndefCntr1_undef8 lam4n8 ) ) 0 ) ( = ( + ( * ( - 1 ) lam4n2 ) ( * UndefCntr1_undef9 lam4n8 ) ) 0 ) ( = ( + ( * ( - 1 ) lam4n3 ) ( * UndefCntr1_undef10 lam4n8 ) ) 0 ) ) ( and ( >= lam5n0 0 ) ( >= lam5n1 0 ) ( >= lam5n2 0 ) ( >= lam5n3 0 ) ( >= lam5n4 0 ) ( >= lam5n5 0 ) ( >= lam5n6 0 ) ( >= lam5n7 0 ) ( >= lam5n8 0 ) ( >= lam5n9 0 ) ( >= lam5n10 0 ) ( >= lam5n11 0 ) ( > ( + ( * 1 lam5n0 ) ( * 1 lam5n1 ) ( * 1 lam5n2 ) ( * 1 lam5n3 ) ( * 2 lam5n6 ) ( * 3 lam5n7 ) ( * UndefCntr1_CT lam5n8 ) ( * Nl2CT1 lam5n9 ) ( * Nl2CT2 lam5n10 ) ( * Nl2CT3 lam5n11 ) ( - 1 ( + ( + Nl2CT1 ( * Nl2arg11 0 ) ) ( * Nl2arg21 0 ) ) ) ) 0 ) ( = ( + ( * ( - 1 ) lam5n0 ) ( * ( - 1 ) lam5n4 ) ( * UndefCntr1_arg1 lam5n8 ) ( * Nl2arg11 lam5n9 ) ( * Nl2arg12 lam5n10 ) ( * Nl2arg13 lam5n11 ) ) 0 ) ( = ( + ( * ( - 1 ) lam5n6 ) ( * ( - 1 ) lam5n7 ) ( * UndefCntr1_arg2 lam5n8 ) ( * Nl2arg21 lam5n9 ) ( * Nl2arg22 lam5n10 ) ( * Nl2arg23 lam5n11 ) ) 0 ) ( = ( + ( * ( - 1 ) lam5n1 ) ( * 1 lam5n4 ) ( * 1 lam5n6 ) ( * UndefCntr1_undef7 lam5n8 ) ( - ( + 0 ( * Nl2arg11 1 ) ) ) ) 0 ) ( = ( + ( * ( - 1 ) lam5n5 ) ( * UndefCntr1_undef8 lam5n8 ) ( - ( + 0 ( * Nl2arg21 1 ) ) ) ) 0 ) ( = ( + ( * ( - 1 ) lam5n2 ) ( * UndefCntr1_undef9 lam5n8 ) ) 0 ) ( = ( + ( * ( - 1 ) lam5n3 ) ( * UndefCntr1_undef10 lam5n8 ) ) 0 ) ) ))
(assert ( or ( and ( >= lam4n0 0 ) ( >= lam4n1 0 ) ( >= lam4n2 0 ) ( >= lam4n3 0 ) ( >= lam4n4 0 ) ( >= lam4n5 0 ) ( >= lam4n6 0 ) ( >= lam4n7 0 ) ( >= lam4n8 0 ) ( >= lam4n9 0 ) ( >= lam4n10 0 ) ( >= lam4n11 0 ) ( > ( + ( * 1 lam4n0 ) ( * 1 lam4n1 ) ( * 1 lam4n2 ) ( * 1 lam4n3 ) ( * 2 lam4n6 ) ( * 3 lam4n7 ) ( * UndefCntr1_CT lam4n8 ) ( * Nl2CT1 lam4n9 ) ( * Nl2CT2 lam4n10 ) ( * Nl2CT3 lam4n11 ) ( - 1 ) ) 0 ) ( = ( + ( * ( - 1 ) lam4n0 ) ( * ( - 1 ) lam4n4 ) ( * UndefCntr1_arg1 lam4n8 ) ( * Nl2arg11 lam4n9 ) ( * Nl2arg12 lam4n10 ) ( * Nl2arg13 lam4n11 ) ) 0 ) ( = ( + ( * ( - 1 ) lam4n6 ) ( * ( - 1 ) lam4n7 ) ( * UndefCntr1_arg2 lam4n8 ) ( * Nl2arg21 lam4n9 ) ( * Nl2arg22 lam4n10 ) ( * Nl2arg23 lam4n11 ) ) 0 ) ( = ( + ( * ( - 1 ) lam4n1 ) ( * 1 lam4n4 ) ( * 1 lam4n6 ) ( * UndefCntr1_undef7 lam4n8 ) ) 0 ) ( = ( + ( * ( - 1 ) lam4n5 ) ( * UndefCntr1_undef8 lam4n8 ) ) 0 ) ( = ( + ( * ( - 1 ) lam4n2 ) ( * UndefCntr1_undef9 lam4n8 ) ) 0 ) ( = ( + ( * ( - 1 ) lam4n3 ) ( * UndefCntr1_undef10 lam4n8 ) ) 0 ) ) ( and ( >= lam6n0 0 ) ( >= lam6n1 0 ) ( >= lam6n2 0 ) ( >= lam6n3 0 ) ( >= lam6n4 0 ) ( >= lam6n5 0 ) ( >= lam6n6 0 ) ( >= lam6n7 0 ) ( >= lam6n8 0 ) ( >= lam6n9 0 ) ( >= lam6n10 0 ) ( >= lam6n11 0 ) ( > ( + ( * 1 lam6n0 ) ( * 1 lam6n1 ) ( * 1 lam6n2 ) ( * 1 lam6n3 ) ( * 2 lam6n6 ) ( * 3 lam6n7 ) ( * UndefCntr1_CT lam6n8 ) ( * Nl2CT1 lam6n9 ) ( * Nl2CT2 lam6n10 ) ( * Nl2CT3 lam6n11 ) ( - 1 ( + ( + Nl2CT2 ( * Nl2arg12 0 ) ) ( * Nl2arg22 0 ) ) ) ) 0 ) ( = ( + ( * ( - 1 ) lam6n0 ) ( * ( - 1 ) lam6n4 ) ( * UndefCntr1_arg1 lam6n8 ) ( * Nl2arg11 lam6n9 ) ( * Nl2arg12 lam6n10 ) ( * Nl2arg13 lam6n11 ) ) 0 ) ( = ( + ( * ( - 1 ) lam6n6 ) ( * ( - 1 ) lam6n7 ) ( * UndefCntr1_arg2 lam6n8 ) ( * Nl2arg21 lam6n9 ) ( * Nl2arg22 lam6n10 ) ( * Nl2arg23 lam6n11 ) ) 0 ) ( = ( + ( * ( - 1 ) lam6n1 ) ( * 1 lam6n4 ) ( * 1 lam6n6 ) ( * UndefCntr1_undef7 lam6n8 ) ( - ( + 0 ( * Nl2arg12 1 ) ) ) ) 0 ) ( = ( + ( * ( - 1 ) lam6n5 ) ( * UndefCntr1_undef8 lam6n8 ) ( - ( + 0 ( * Nl2arg22 1 ) ) ) ) 0 ) ( = ( + ( * ( - 1 ) lam6n2 ) ( * UndefCntr1_undef9 lam6n8 ) ) 0 ) ( = ( + ( * ( - 1 ) lam6n3 ) ( * UndefCntr1_undef10 lam6n8 ) ) 0 ) ) ))
(assert ( or ( and ( >= lam4n0 0 ) ( >= lam4n1 0 ) ( >= lam4n2 0 ) ( >= lam4n3 0 ) ( >= lam4n4 0 ) ( >= lam4n5 0 ) ( >= lam4n6 0 ) ( >= lam4n7 0 ) ( >= lam4n8 0 ) ( >= lam4n9 0 ) ( >= lam4n10 0 ) ( >= lam4n11 0 ) ( > ( + ( * 1 lam4n0 ) ( * 1 lam4n1 ) ( * 1 lam4n2 ) ( * 1 lam4n3 ) ( * 2 lam4n6 ) ( * 3 lam4n7 ) ( * UndefCntr1_CT lam4n8 ) ( * Nl2CT1 lam4n9 ) ( * Nl2CT2 lam4n10 ) ( * Nl2CT3 lam4n11 ) ( - 1 ) ) 0 ) ( = ( + ( * ( - 1 ) lam4n0 ) ( * ( - 1 ) lam4n4 ) ( * UndefCntr1_arg1 lam4n8 ) ( * Nl2arg11 lam4n9 ) ( * Nl2arg12 lam4n10 ) ( * Nl2arg13 lam4n11 ) ) 0 ) ( = ( + ( * ( - 1 ) lam4n6 ) ( * ( - 1 ) lam4n7 ) ( * UndefCntr1_arg2 lam4n8 ) ( * Nl2arg21 lam4n9 ) ( * Nl2arg22 lam4n10 ) ( * Nl2arg23 lam4n11 ) ) 0 ) ( = ( + ( * ( - 1 ) lam4n1 ) ( * 1 lam4n4 ) ( * 1 lam4n6 ) ( * UndefCntr1_undef7 lam4n8 ) ) 0 ) ( = ( + ( * ( - 1 ) lam4n5 ) ( * UndefCntr1_undef8 lam4n8 ) ) 0 ) ( = ( + ( * ( - 1 ) lam4n2 ) ( * UndefCntr1_undef9 lam4n8 ) ) 0 ) ( = ( + ( * ( - 1 ) lam4n3 ) ( * UndefCntr1_undef10 lam4n8 ) ) 0 ) ) ( and ( >= lam7n0 0 ) ( >= lam7n1 0 ) ( >= lam7n2 0 ) ( >= lam7n3 0 ) ( >= lam7n4 0 ) ( >= lam7n5 0 ) ( >= lam7n6 0 ) ( >= lam7n7 0 ) ( >= lam7n8 0 ) ( >= lam7n9 0 ) ( >= lam7n10 0 ) ( >= lam7n11 0 ) ( > ( + ( * 1 lam7n0 ) ( * 1 lam7n1 ) ( * 1 lam7n2 ) ( * 1 lam7n3 ) ( * 2 lam7n6 ) ( * 3 lam7n7 ) ( * UndefCntr1_CT lam7n8 ) ( * Nl2CT1 lam7n9 ) ( * Nl2CT2 lam7n10 ) ( * Nl2CT3 lam7n11 ) ( - 1 ( + ( + Nl2CT3 ( * Nl2arg13 0 ) ) ( * Nl2arg23 0 ) ) ) ) 0 ) ( = ( + ( * ( - 1 ) lam7n0 ) ( * ( - 1 ) lam7n4 ) ( * UndefCntr1_arg1 lam7n8 ) ( * Nl2arg11 lam7n9 ) ( * Nl2arg12 lam7n10 ) ( * Nl2arg13 lam7n11 ) ) 0 ) ( = ( + ( * ( - 1 ) lam7n6 ) ( * ( - 1 ) lam7n7 ) ( * UndefCntr1_arg2 lam7n8 ) ( * Nl2arg21 lam7n9 ) ( * Nl2arg22 lam7n10 ) ( * Nl2arg23 lam7n11 ) ) 0 ) ( = ( + ( * ( - 1 ) lam7n1 ) ( * 1 lam7n4 ) ( * 1 lam7n6 ) ( * UndefCntr1_undef7 lam7n8 ) ( - ( + 0 ( * Nl2arg13 1 ) ) ) ) 0 ) ( = ( + ( * ( - 1 ) lam7n5 ) ( * UndefCntr1_undef8 lam7n8 ) ( - ( + 0 ( * Nl2arg23 1 ) ) ) ) 0 ) ( = ( + ( * ( - 1 ) lam7n2 ) ( * UndefCntr1_undef9 lam7n8 ) ) 0 ) ( = ( + ( * ( - 1 ) lam7n3 ) ( * UndefCntr1_undef10 lam7n8 ) ) 0 ) ) ))
(assert ( and ( <= ( + Nl2CT1 ( * Nl2arg11 FV_arg1_2 ) ( * Nl2arg21 FV_arg2_2 ) ) 0 ) ( <= ( + Nl2CT2 ( * Nl2arg12 FV_arg1_2 ) ( * Nl2arg22 FV_arg2_2 ) ) 0 ) ( <= ( + Nl2CT3 ( * Nl2arg13 FV_arg1_2 ) ( * Nl2arg23 FV_arg2_2 ) ) 0 ) ( <= ( + 1 ( * ( - 1 ) FV_arg1_2 ) ) 0 ) ))
(assert ( or ( not ( = UndefCntr0_arg1 0 ) ) ( not ( = UndefCntr0_arg2 0 ) ) ( not ( = UndefCntr0_undef5 0 ) ) ( not ( = UndefCntr0_undef6 0 ) ) ( = UndefCntr0_CT 0 ) ))
(assert ( or ( and ( = UndefCntr0_arg1 0 ) ( = UndefCntr0_arg2 0 ) ) ( or ( not ( = UndefCntr0_undef5 0 ) ) ( not ( = UndefCntr0_undef6 0 ) ) ) ))
(assert ( or ( not ( = UndefCntr1_arg1 0 ) ) ( not ( = UndefCntr1_arg2 0 ) ) ( not ( = UndefCntr1_undef7 0 ) ) ( not ( = UndefCntr1_undef8 0 ) ) ( not ( = UndefCntr1_undef9 0 ) ) ( not ( = UndefCntr1_undef10 0 ) ) ( = UndefCntr1_CT 0 ) ))
(assert ( or ( and ( = UndefCntr1_arg1 0 ) ( = UndefCntr1_arg2 0 ) ) ( or ( not ( = UndefCntr1_undef7 0 ) ) ( not ( = UndefCntr1_undef8 0 ) ) ( not ( = UndefCntr1_undef9 0 ) ) ( not ( = UndefCntr1_undef10 0 ) ) ) ))
(assert ( or ( and ( >= lam11n0 0 ) ( >= lam11n1 0 ) ( >= lam11n2 0 ) ( >= lam11n3 0 ) ( >= lam11n4 0 ) ( > ( + ( * 1 lam11n0 ) ( * 3 lam11n1 ) ( * Nl2CT1 lam11n2 ) ( * Nl2CT2 lam11n3 ) ( * Nl2CT3 lam11n4 ) ( - 1 ) ) 0 ) ( = ( + ( * ( - 1 ) lam11n0 ) ( * Nl2arg11 lam11n2 ) ( * Nl2arg12 lam11n3 ) ( * Nl2arg13 lam11n4 ) ) 0 ) ( = ( + ( * ( - 1 ) lam11n1 ) ( * Nl2arg21 lam11n2 ) ( * Nl2arg22 lam11n3 ) ( * Nl2arg23 lam11n4 ) ) 0 ) ) ( and ( and ( >= lam12n0 0 ) ( >= lam12n1 0 ) ( >= lam12n2 0 ) ( >= lam12n3 0 ) ( >= lam12n4 0 ) ( > ( + ( * 1 lam12n0 ) ( * 3 lam12n1 ) ( * Nl2CT1 lam12n2 ) ( * Nl2CT2 lam12n3 ) ( * Nl2CT3 lam12n4 ) ( - 1 ( + ( + 1 0 ) ( * 1 UndefDef0undef6_CT ) ) ) ) 0 ) ( = ( + ( * ( - 1 ) lam12n0 ) ( * Nl2arg11 lam12n2 ) ( * Nl2arg12 lam12n3 ) ( * Nl2arg13 lam12n4 ) ( - ( + ( - 1 ) ( * UndefDef0undef6_arg1 1 ) ) ) ) 0 ) ( = ( + ( * ( - 1 ) lam12n1 ) ( * Nl2arg21 lam12n2 ) ( * Nl2arg22 lam12n3 ) ( * Nl2arg23 lam12n4 ) ( - ( * UndefDef0undef6_arg2 1 ) ) ) 0 ) ) ( and ( >= lam13n0 0 ) ( >= lam13n1 0 ) ( >= lam13n2 0 ) ( >= lam13n3 0 ) ( >= lam13n4 0 ) ( > ( + ( * 1 lam13n0 ) ( * 3 lam13n1 ) ( * Nl2CT1 lam13n2 ) ( * Nl2CT2 lam13n3 ) ( * Nl2CT3 lam13n4 ) ( - 1 ( + ( + 1 0 ) ( * 1 UndefDef0undef5_CT ) ) ) ) 0 ) ( = ( + ( * ( - 1 ) lam13n0 ) ( * Nl2arg11 lam13n2 ) ( * Nl2arg12 lam13n3 ) ( * Nl2arg13 lam13n4 ) ( - ( * UndefDef0undef5_arg1 1 ) ) ) 0 ) ( = ( + ( * ( - 1 ) lam13n1 ) ( * Nl2arg21 lam13n2 ) ( * Nl2arg22 lam13n3 ) ( * Nl2arg23 lam13n4 ) ( - ( + ( - 1 ) ( * UndefDef0undef5_arg2 1 ) ) ) ) 0 ) ) ( and ( >= lam14n0 0 ) ( >= lam14n1 0 ) ( >= lam14n2 0 ) ( >= lam14n3 0 ) ( >= lam14n4 0 ) ( > ( + ( * 1 lam14n0 ) ( * 3 lam14n1 ) ( * Nl2CT1 lam14n2 ) ( * Nl2CT2 lam14n3 ) ( * Nl2CT3 lam14n4 ) ( - 1 ( + 1 ( * ( - 1 ) UndefDef0undef5_CT ) ) ) ) 0 ) ( = ( + ( * ( - 1 ) lam14n0 ) ( * Nl2arg11 lam14n2 ) ( * Nl2arg12 lam14n3 ) ( * Nl2arg13 lam14n4 ) ( - ( * UndefDef0undef5_arg1 ( - 1 ) ) ) ) 0 ) ( = ( + ( * ( - 1 ) lam14n1 ) ( * Nl2arg21 lam14n2 ) ( * Nl2arg22 lam14n3 ) ( * Nl2arg23 lam14n4 ) ( - ( * UndefDef0undef5_arg2 ( - 1 ) ) ) ) 0 ) ) ( and ( >= lam15n0 0 ) ( >= lam15n1 0 ) ( >= lam15n2 0 ) ( >= lam15n3 0 ) ( >= lam15n4 0 ) ( > ( + ( * 1 lam15n0 ) ( * 3 lam15n1 ) ( * Nl2CT1 lam15n2 ) ( * Nl2CT2 lam15n3 ) ( * Nl2CT3 lam15n4 ) ( - 1 ( + ( + 0 0 ) ( * 1 UndefDef0undef5_CT ) ) ) ) 0 ) ( = ( + ( * ( - 1 ) lam15n0 ) ( * Nl2arg11 lam15n2 ) ( * Nl2arg12 lam15n3 ) ( * Nl2arg13 lam15n4 ) ( - ( + ( - 1 ) ( * UndefDef0undef5_arg1 1 ) ) ) ) 0 ) ( = ( + ( * ( - 1 ) lam15n1 ) ( * Nl2arg21 lam15n2 ) ( * Nl2arg22 lam15n3 ) ( * Nl2arg23 lam15n4 ) ( - ( * UndefDef0undef5_arg2 1 ) ) ) 0 ) ) ( and ( >= lam16n0 0 ) ( >= lam16n1 0 ) ( >= lam16n2 0 ) ( >= lam16n3 0 ) ( >= lam16n4 0 ) ( > ( + ( * 1 lam16n0 ) ( * 3 lam16n1 ) ( * Nl2CT1 lam16n2 ) ( * Nl2CT2 lam16n3 ) ( * Nl2CT3 lam16n4 ) ( - 1 ( + 0 ( * ( - 1 ) UndefDef0undef6_CT ) ) ) ) 0 ) ( = ( + ( * ( - 1 ) lam16n0 ) ( * Nl2arg11 lam16n2 ) ( * Nl2arg12 lam16n3 ) ( * Nl2arg13 lam16n4 ) ( - ( * UndefDef0undef6_arg1 ( - 1 ) ) ) ) 0 ) ( = ( + ( * ( - 1 ) lam16n1 ) ( * Nl2arg21 lam16n2 ) ( * Nl2arg22 lam16n3 ) ( * Nl2arg23 lam16n4 ) ( - ( * UndefDef0undef6_arg2 ( - 1 ) ) ) ) 0 ) ) ( and ( >= lam17n0 0 ) ( >= lam17n1 0 ) ( >= lam17n2 0 ) ( >= lam17n3 0 ) ( >= lam17n4 0 ) ( > ( + ( * 1 lam17n0 ) ( * 3 lam17n1 ) ( * Nl2CT1 lam17n2 ) ( * Nl2CT2 lam17n3 ) ( * Nl2CT3 lam17n4 ) ( - 1 ( + ( + 2 0 ) ( * 1 UndefDef0undef6_CT ) ) ) ) 0 ) ( = ( + ( * ( - 1 ) lam17n0 ) ( * Nl2arg11 lam17n2 ) ( * Nl2arg12 lam17n3 ) ( * Nl2arg13 lam17n4 ) ( - ( * UndefDef0undef6_arg1 1 ) ) ) 0 ) ( = ( + ( * ( - 1 ) lam17n1 ) ( * Nl2arg21 lam17n2 ) ( * Nl2arg22 lam17n3 ) ( * Nl2arg23 lam17n4 ) ( - ( + ( - 1 ) ( * UndefDef0undef6_arg2 1 ) ) ) ) 0 ) ) ( or ( and ( = UndefCntr0_undef5 0 ) ( = UndefCntr0_undef6 0 ) ) ( and ( >= lam18n0 0 ) ( >= lam18n1 0 ) ( >= lam18n2 0 ) ( >= lam18n3 0 ) ( >= lam18n4 0 ) ( > ( + ( * 1 lam18n0 ) ( * 3 lam18n1 ) ( * Nl2CT1 lam18n2 ) ( * Nl2CT2 lam18n3 ) ( * Nl2CT3 lam18n4 ) ( - 1 ( + ( + ( + ( + UndefCntr0_CT 0 ) 0 ) ( * UndefCntr0_undef5 UndefDef0undef5_CT ) ) ( * UndefCntr0_undef6 UndefDef0undef6_CT ) ) ) ) 0 ) ( = ( + ( * ( - 1 ) lam18n0 ) ( * Nl2arg11 lam18n2 ) ( * Nl2arg12 lam18n3 ) ( * Nl2arg13 lam18n4 ) ( - ( + ( + UndefCntr0_arg1 ( * UndefDef0undef5_arg1 UndefCntr0_undef5 ) ) ( * UndefDef0undef6_arg1 UndefCntr0_undef6 ) ) ) ) 0 ) ( = ( + ( * ( - 1 ) lam18n1 ) ( * Nl2arg21 lam18n2 ) ( * Nl2arg22 lam18n3 ) ( * Nl2arg23 lam18n4 ) ( - ( + ( + UndefCntr0_arg2 ( * UndefDef0undef5_arg2 UndefCntr0_undef5 ) ) ( * UndefDef0undef6_arg2 UndefCntr0_undef6 ) ) ) ) 0 ) ) ) ) ))
(assert ( or ( and ( >= lam19n0 0 ) ( >= lam19n1 0 ) ( >= lam19n2 0 ) ( >= lam19n3 0 ) ( >= lam19n4 0 ) ( >= lam19n5 0 ) ( >= lam19n6 0 ) ( >= lam19n7 0 ) ( > ( + ( * 1 lam19n0 ) ( * 1 lam19n1 ) ( * 1 lam19n2 ) ( * 3 lam19n4 ) ( * Nl2CT1 lam19n5 ) ( * Nl2CT2 lam19n6 ) ( * Nl2CT3 lam19n7 ) ( - 1 ) ) 0 ) ( = ( + ( * ( - 1 ) lam19n0 ) ( * Nl2arg11 lam19n5 ) ( * Nl2arg12 lam19n6 ) ( * Nl2arg13 lam19n7 ) ) 0 ) ( = ( + ( * ( - 1 ) lam19n4 ) ( * Nl2arg21 lam19n5 ) ( * Nl2arg22 lam19n6 ) ( * Nl2arg23 lam19n7 ) ) 0 ) ( = ( * ( - 1 ) lam19n3 ) 0 ) ( = ( * ( - 1 ) lam19n1 ) 0 ) ( = ( * ( - 1 ) lam19n2 ) 0 ) ) ( and ( and ( >= lam20n0 0 ) ( >= lam20n1 0 ) ( >= lam20n2 0 ) ( >= lam20n3 0 ) ( >= lam20n4 0 ) ( >= lam20n5 0 ) ( >= lam20n6 0 ) ( >= lam20n7 0 ) ( > ( + ( * 1 lam20n0 ) ( * 1 lam20n1 ) ( * 1 lam20n2 ) ( * 3 lam20n4 ) ( * Nl2CT1 lam20n5 ) ( * Nl2CT2 lam20n6 ) ( * Nl2CT3 lam20n7 ) ( - 1 ( + 1 ( * ( - 1 ) UndefDef1undef7_CT ) ) ) ) 0 ) ( = ( + ( * ( - 1 ) lam20n0 ) ( * Nl2arg11 lam20n5 ) ( * Nl2arg12 lam20n6 ) ( * Nl2arg13 lam20n7 ) ( - ( * UndefDef1undef7_arg1 ( - 1 ) ) ) ) 0 ) ( = ( + ( * ( - 1 ) lam20n4 ) ( * Nl2arg21 lam20n5 ) ( * Nl2arg22 lam20n6 ) ( * Nl2arg23 lam20n7 ) ( - ( * UndefDef1undef7_arg2 ( - 1 ) ) ) ) 0 ) ( = ( * ( - 1 ) lam20n3 ) 0 ) ( = ( * ( - 1 ) lam20n1 ) 0 ) ( = ( * ( - 1 ) lam20n2 ) 0 ) ) ( and ( >= lam21n0 0 ) ( >= lam21n1 0 ) ( >= lam21n2 0 ) ( >= lam21n3 0 ) ( >= lam21n4 0 ) ( >= lam21n5 0 ) ( >= lam21n6 0 ) ( >= lam21n7 0 ) ( > ( + ( * 1 lam21n0 ) ( * 1 lam21n1 ) ( * 1 lam21n2 ) ( * 3 lam21n4 ) ( * Nl2CT1 lam21n5 ) ( * Nl2CT2 lam21n6 ) ( * Nl2CT3 lam21n7 ) ( - 1 ( + ( + 0 0 ) ( * 1 UndefDef1undef7_CT ) ) ) ) 0 ) ( = ( + ( * ( - 1 ) lam21n0 ) ( * Nl2arg11 lam21n5 ) ( * Nl2arg12 lam21n6 ) ( * Nl2arg13 lam21n7 ) ( - ( + ( - 1 ) ( * UndefDef1undef7_arg1 1 ) ) ) ) 0 ) ( = ( + ( * ( - 1 ) lam21n4 ) ( * Nl2arg21 lam21n5 ) ( * Nl2arg22 lam21n6 ) ( * Nl2arg23 lam21n7 ) ( - ( * UndefDef1undef7_arg2 1 ) ) ) 0 ) ( = ( * ( - 1 ) lam21n3 ) 0 ) ( = ( * ( - 1 ) lam21n1 ) 0 ) ( = ( * ( - 1 ) lam21n2 ) 0 ) ) ( and ( >= lam22n0 0 ) ( >= lam22n1 0 ) ( >= lam22n2 0 ) ( >= lam22n3 0 ) ( >= lam22n4 0 ) ( >= lam22n5 0 ) ( >= lam22n6 0 ) ( >= lam22n7 0 ) ( > ( + ( * 1 lam22n0 ) ( * 1 lam22n1 ) ( * 1 lam22n2 ) ( * 3 lam22n4 ) ( * Nl2CT1 lam22n5 ) ( * Nl2CT2 lam22n6 ) ( * Nl2CT3 lam22n7 ) ( - 1 ( + ( + 2 0 ) ( * 1 UndefDef1undef7_CT ) ) ) ) 0 ) ( = ( + ( * ( - 1 ) lam22n0 ) ( * Nl2arg11 lam22n5 ) ( * Nl2arg12 lam22n6 ) ( * Nl2arg13 lam22n7 ) ( - ( * UndefDef1undef7_arg1 1 ) ) ) 0 ) ( = ( + ( * ( - 1 ) lam22n4 ) ( * Nl2arg21 lam22n5 ) ( * Nl2arg22 lam22n6 ) ( * Nl2arg23 lam22n7 ) ( - ( + ( - 1 ) ( * UndefDef1undef7_arg2 1 ) ) ) ) 0 ) ( = ( * ( - 1 ) lam22n3 ) 0 ) ( = ( * ( - 1 ) lam22n1 ) 0 ) ( = ( * ( - 1 ) lam22n2 ) 0 ) ) ( or ( = UndefCntr1_undef7 0 ) ( and ( >= lam23n0 0 ) ( >= lam23n1 0 ) ( >= lam23n2 0 ) ( >= lam23n3 0 ) ( >= lam23n4 0 ) ( >= lam23n5 0 ) ( >= lam23n6 0 ) ( >= lam23n7 0 ) ( > ( + ( * 1 lam23n0 ) ( * 1 lam23n1 ) ( * 1 lam23n2 ) ( * 3 lam23n4 ) ( * Nl2CT1 lam23n5 ) ( * Nl2CT2 lam23n6 ) ( * Nl2CT3 lam23n7 ) ( - 1 ( + ( + ( + ( + ( + ( + UndefCntr1_CT 0 ) 0 ) ( * UndefCntr1_undef7 UndefDef1undef7_CT ) ) 0 ) 0 ) 0 ) ) ) 0 ) ( = ( + ( * ( - 1 ) lam23n0 ) ( * Nl2arg11 lam23n5 ) ( * Nl2arg12 lam23n6 ) ( * Nl2arg13 lam23n7 ) ( - ( + UndefCntr1_arg1 ( * UndefDef1undef7_arg1 UndefCntr1_undef7 ) ) ) ) 0 ) ( = ( + ( * ( - 1 ) lam23n4 ) ( * Nl2arg21 lam23n5 ) ( * Nl2arg22 lam23n6 ) ( * Nl2arg23 lam23n7 ) ( - ( + UndefCntr1_arg2 ( * UndefDef1undef7_arg2 UndefCntr1_undef7 ) ) ) ) 0 ) ( = ( + ( * ( - 1 ) lam23n3 ) ( - UndefCntr1_undef8 ) ) 0 ) ( = ( + ( * ( - 1 ) lam23n1 ) ( - UndefCntr1_undef9 ) ) 0 ) ( = ( + ( * ( - 1 ) lam23n2 ) ( - UndefCntr1_undef10 ) ) 0 ) ) ) ) ))
(assert ( or ( = UndefCntr1_undef8 0 ) ( and ( and ( = UndefCntr1_arg1 0 ) ( = UndefCntr1_arg2 0 ) ( = UndefCntr1_undef7 0 ) ( = UndefCntr1_undef9 0 ) ( = UndefCntr1_undef10 0 ) ) ( or ( and ( <= ( * ( - 1 ) FV_undef8_1 ) 0 ) ( <= ( + UndefCntr1_CT ( * UndefCntr1_undef9 FV_undef9_1 ) ( * UndefCntr1_undef10 FV_undef10_1 ) ( * UndefCntr1_undef8 FV_undef8_1 ) ( * UndefCntr1_arg1 FV_arg1_1 ) ( * UndefCntr1_arg2 FV_arg2_1 ) ( * UndefCntr1_undef7 FV_undef7_1 ) ) 0 ) ) ( and ( <= ( * ( - 1 ) FV_undef8_1 ) 0 ) ( <= ( + UndefCntr1_CT ( * UndefCntr1_undef9 FV_undef9_1 ) ( * UndefCntr1_undef10 FV_undef10_1 ) ( * UndefCntr1_undef8 FV_undef8_1 ) ( * UndefCntr1_arg1 FV_arg1_1 ) ( * UndefCntr1_arg2 FV_arg2_1 ) ( * UndefCntr1_undef7 FV_undef7_1 ) ) 0 ) ) ) ) ))
(assert ( or ( = UndefCntr1_undef9 0 ) ( and ( and ( = UndefCntr1_arg1 0 ) ( = UndefCntr1_arg2 0 ) ( = UndefCntr1_undef7 0 ) ( = UndefCntr1_undef8 0 ) ( = UndefCntr1_undef10 0 ) ) ( or ( and ( <= ( + 1 ( * ( - 1 ) FV_undef9_1 ) ) 0 ) ( <= ( + UndefCntr1_CT ( * UndefCntr1_undef9 FV_undef9_1 ) ( * UndefCntr1_undef10 FV_undef10_1 ) ( * UndefCntr1_undef8 FV_undef8_1 ) ( * UndefCntr1_arg1 FV_arg1_1 ) ( * UndefCntr1_arg2 FV_arg2_1 ) ( * UndefCntr1_undef7 FV_undef7_1 ) ) 0 ) ) ( and ( <= ( + 1 ( * ( - 1 ) FV_undef9_1 ) ) 0 ) ( <= ( + UndefCntr1_CT ( * UndefCntr1_undef9 FV_undef9_1 ) ( * UndefCntr1_undef10 FV_undef10_1 ) ( * UndefCntr1_undef8 FV_undef8_1 ) ( * UndefCntr1_arg1 FV_arg1_1 ) ( * UndefCntr1_arg2 FV_arg2_1 ) ( * UndefCntr1_undef7 FV_undef7_1 ) ) 0 ) ) ) ) ))
(assert ( or ( = UndefCntr1_undef10 0 ) ( and ( and ( = UndefCntr1_arg1 0 ) ( = UndefCntr1_arg2 0 ) ( = UndefCntr1_undef7 0 ) ( = UndefCntr1_undef8 0 ) ( = UndefCntr1_undef9 0 ) ) ( or ( and ( <= ( + 1 ( * ( - 1 ) FV_undef10_1 ) ) 0 ) ( <= ( + UndefCntr1_CT ( * UndefCntr1_undef9 FV_undef9_1 ) ( * UndefCntr1_undef10 FV_undef10_1 ) ( * UndefCntr1_undef8 FV_undef8_1 ) ( * UndefCntr1_arg1 FV_arg1_1 ) ( * UndefCntr1_arg2 FV_arg2_1 ) ( * UndefCntr1_undef7 FV_undef7_1 ) ) 0 ) ) ( and ( <= ( + 1 ( * ( - 1 ) FV_undef10_1 ) ) 0 ) ( <= ( + UndefCntr1_CT ( * UndefCntr1_undef9 FV_undef9_1 ) ( * UndefCntr1_undef10 FV_undef10_1 ) ( * UndefCntr1_undef8 FV_undef8_1 ) ( * UndefCntr1_arg1 FV_arg1_1 ) ( * UndefCntr1_arg2 FV_arg2_1 ) ( * UndefCntr1_undef7 FV_undef7_1 ) ) 0 ) ) ) ) ))
(assert ( and ( >= lam24n0 0 ) ( >= lam24n1 0 ) ( >= lam24n2 0 ) ( >= lam24n3 0 ) ( >= lam24n4 0 ) ( > ( + ( * 1 lam24n0 ) ( * ( - 2 ) lam24n1 ) ( * Nl2CT1 lam24n2 ) ( * Nl2CT2 lam24n3 ) ( * Nl2CT3 lam24n4 ) ( - 1 ) ) 0 ) ( = ( + ( * ( - 1 ) lam24n0 ) ( * Nl2arg11 lam24n2 ) ( * Nl2arg12 lam24n3 ) ( * Nl2arg13 lam24n4 ) ) 0 ) ( = ( + ( * 1 lam24n1 ) ( * Nl2arg21 lam24n2 ) ( * Nl2arg22 lam24n3 ) ( * Nl2arg23 lam24n4 ) ) 0 ) ))
(assert ( and ( and ( <= ( + Nl2CT1 ( * Nl2arg11 FV_arg1_3 ) ( * Nl2arg21 FV_arg2_3 ) ) 0 ) ( <= ( + Nl2CT2 ( * Nl2arg12 FV_arg1_3 ) ( * Nl2arg22 FV_arg2_3 ) ) 0 ) ( <= ( + Nl2CT3 ( * Nl2arg13 FV_arg1_3 ) ( * Nl2arg23 FV_arg2_3 ) ) 0 ) ) ( or ( and ( <= ( + 1 ( * ( - 1 ) FV_arg1_3 ) ) 0 ) ( <= ( + 1 ( * ( - 1 ) FV_arg1_3 ) FV_undef6_3 ) 0 ) ( <= ( + 1 ( * ( - 1 ) FV_arg2_3 ) FV_undef5_3 ) 0 ) ( <= ( + 1 ( * ( - 1 ) FV_undef5_3 ) ) 0 ) ( <= ( + ( * ( - 1 ) FV_arg1_3 ) FV_undef5_3 ) 0 ) ( <= ( * ( - 1 ) FV_undef6_3 ) 0 ) ( <= ( + 2 FV_undef6_3 ( * ( - 1 ) FV_arg2_3 ) ) 0 ) ( <= ( + 3 ( * ( - 1 ) FV_arg2_3 ) ) 0 ) ) ( and ( <= ( + 1 ( * ( - 1 ) FV_arg1_3 ) ) 0 ) ( <= ( + 1 ( * ( - 1 ) FV_undef7_3 ) ) 0 ) ( <= ( + 1 ( * ( - 1 ) FV_undef9_3 ) ) 0 ) ( <= ( + 1 ( * ( - 1 ) FV_undef10_3 ) ) 0 ) ( <= ( + ( * ( - 1 ) FV_arg1_3 ) FV_undef7_3 ) 0 ) ( <= ( * ( - 1 ) FV_undef8_3 ) 0 ) ( <= ( + 2 ( * ( - 1 ) FV_arg2_3 ) FV_undef7_3 ) 0 ) ( <= ( + 3 ( * ( - 1 ) FV_arg2_3 ) ) 0 ) ) ) ))
(check-sat)
(exit)
